26362
14
538770
365700
 0 1 1 2183 600  12 0 54 77 83 2 17 69 105 64 94 82 0
 0 1 1 1896 590  10 0 57 63 31 40 13 85 21 74 0
 0 1 1 1379 594  10 0 5 44 15 76 51 100 45 96 0
 0 1 1 1722 592  9 0 71 49 99 11 34 72 29 0
 0 1 1 1449 600  10 0 53 103 101 93 97 43 87 60 0
 0 1 1 2146 600  10 0 67 48 8 36 91 88 58 14 0
 0 1 1 1435 575  9 0 1 104 12 9 84 75 7 0
 0 1 1 1317 597  9 0 62 26 90 24 102 92 52 0
 0 1 1 1758 585  10 0 28 66 46 79 37 27 19 78 0
 0 1 1 985 142  4 0 22 33 0
 0 1 1 2411 596  9 0 56 20 16 10 41 18 86 0
 0 1 1 2443 597  11 0 59 89 30 42 23 3 32 73 35 0
 0 1 1 2758 598  10 0 39 50 81 6 70 4 98 55 0
 0 1 1 2480 598  10 0 68 95 38 65 80 61 47 25 0
